7004518101422145305506,4,1,2,08,11,1,2,013,5,1,2,07,1,1,2,04,10,1,2,015,12,1,2,015,3,1,2,010,6,1,2,05,4,1,2,09,9,1,2,09,8,1,2,06,2,1,2,03,2,1,2,02,8,1,2,05,14,1,2,06,6,1,2,013,13,1,2,012,5,1,2,04,7,1,2,013,1,1,2,05,13,1,2,012,15,1,2,07,6,1,2,09,5,1,2,02,10,1,2,01,13,1,2,05,7,1,2,010,15,1,2,015,12,1,2,015,3,1,2,06,9,1,2,015,4,1,2,05,8,1,2,01,13,1,2,01,1,1,2,01,2,1,2,02,10,1,2,03,13,1,2,014,15,1,2,07,12,1,2,012,15,1,2,04,12,1,2,013,13,1,2,03,4,1,2,012,3,1,2,04,4,1,2,013,1,1,2,07,4,1,2,013,10,1,2,04,14,1,2,0